c *********************************
c * Circuit generated by BenCGen
c *
c * Parity_489
c *
c * Ports with 1 gate(s): 1
c * Ports with 2 gate(s): 489
c * Total gates: 490
c *********************************
p cnf 979 1957
1 492 0
-1 -492 0
1 -491 0
492 -491 0
-1 -492 491 0
1 2 -493 0
-1 2 493 0
1 -2 493 0
-1 -2 -493 0
3 4 -494 0
-3 4 494 0
3 -4 494 0
-3 -4 -494 0
5 6 -495 0
-5 6 495 0
5 -6 495 0
-5 -6 -495 0
7 8 -496 0
-7 8 496 0
7 -8 496 0
-7 -8 -496 0
9 10 -497 0
-9 10 497 0
9 -10 497 0
-9 -10 -497 0
11 12 -498 0
-11 12 498 0
11 -12 498 0
-11 -12 -498 0
13 14 -499 0
-13 14 499 0
13 -14 499 0
-13 -14 -499 0
15 16 -500 0
-15 16 500 0
15 -16 500 0
-15 -16 -500 0
17 18 -501 0
-17 18 501 0
17 -18 501 0
-17 -18 -501 0
19 20 -502 0
-19 20 502 0
19 -20 502 0
-19 -20 -502 0
21 22 -503 0
-21 22 503 0
21 -22 503 0
-21 -22 -503 0
23 24 -504 0
-23 24 504 0
23 -24 504 0
-23 -24 -504 0
25 26 -505 0
-25 26 505 0
25 -26 505 0
-25 -26 -505 0
27 28 -506 0
-27 28 506 0
27 -28 506 0
-27 -28 -506 0
29 30 -507 0
-29 30 507 0
29 -30 507 0
-29 -30 -507 0
31 32 -508 0
-31 32 508 0
31 -32 508 0
-31 -32 -508 0
33 34 -509 0
-33 34 509 0
33 -34 509 0
-33 -34 -509 0
35 36 -510 0
-35 36 510 0
35 -36 510 0
-35 -36 -510 0
37 38 -511 0
-37 38 511 0
37 -38 511 0
-37 -38 -511 0
39 40 -512 0
-39 40 512 0
39 -40 512 0
-39 -40 -512 0
41 42 -513 0
-41 42 513 0
41 -42 513 0
-41 -42 -513 0
43 44 -514 0
-43 44 514 0
43 -44 514 0
-43 -44 -514 0
45 46 -515 0
-45 46 515 0
45 -46 515 0
-45 -46 -515 0
47 48 -516 0
-47 48 516 0
47 -48 516 0
-47 -48 -516 0
49 50 -517 0
-49 50 517 0
49 -50 517 0
-49 -50 -517 0
51 52 -518 0
-51 52 518 0
51 -52 518 0
-51 -52 -518 0
53 54 -519 0
-53 54 519 0
53 -54 519 0
-53 -54 -519 0
55 56 -520 0
-55 56 520 0
55 -56 520 0
-55 -56 -520 0
57 58 -521 0
-57 58 521 0
57 -58 521 0
-57 -58 -521 0
59 60 -522 0
-59 60 522 0
59 -60 522 0
-59 -60 -522 0
61 62 -523 0
-61 62 523 0
61 -62 523 0
-61 -62 -523 0
63 64 -524 0
-63 64 524 0
63 -64 524 0
-63 -64 -524 0
65 66 -525 0
-65 66 525 0
65 -66 525 0
-65 -66 -525 0
67 68 -526 0
-67 68 526 0
67 -68 526 0
-67 -68 -526 0
69 70 -527 0
-69 70 527 0
69 -70 527 0
-69 -70 -527 0
71 72 -528 0
-71 72 528 0
71 -72 528 0
-71 -72 -528 0
73 74 -529 0
-73 74 529 0
73 -74 529 0
-73 -74 -529 0
75 76 -530 0
-75 76 530 0
75 -76 530 0
-75 -76 -530 0
77 78 -531 0
-77 78 531 0
77 -78 531 0
-77 -78 -531 0
79 80 -532 0
-79 80 532 0
79 -80 532 0
-79 -80 -532 0
81 82 -533 0
-81 82 533 0
81 -82 533 0
-81 -82 -533 0
83 84 -534 0
-83 84 534 0
83 -84 534 0
-83 -84 -534 0
85 86 -535 0
-85 86 535 0
85 -86 535 0
-85 -86 -535 0
87 88 -536 0
-87 88 536 0
87 -88 536 0
-87 -88 -536 0
89 90 -537 0
-89 90 537 0
89 -90 537 0
-89 -90 -537 0
91 92 -538 0
-91 92 538 0
91 -92 538 0
-91 -92 -538 0
93 94 -539 0
-93 94 539 0
93 -94 539 0
-93 -94 -539 0
95 96 -540 0
-95 96 540 0
95 -96 540 0
-95 -96 -540 0
97 98 -541 0
-97 98 541 0
97 -98 541 0
-97 -98 -541 0
99 100 -542 0
-99 100 542 0
99 -100 542 0
-99 -100 -542 0
101 102 -543 0
-101 102 543 0
101 -102 543 0
-101 -102 -543 0
103 104 -544 0
-103 104 544 0
103 -104 544 0
-103 -104 -544 0
105 106 -545 0
-105 106 545 0
105 -106 545 0
-105 -106 -545 0
107 108 -546 0
-107 108 546 0
107 -108 546 0
-107 -108 -546 0
109 110 -547 0
-109 110 547 0
109 -110 547 0
-109 -110 -547 0
111 112 -548 0
-111 112 548 0
111 -112 548 0
-111 -112 -548 0
113 114 -549 0
-113 114 549 0
113 -114 549 0
-113 -114 -549 0
115 116 -550 0
-115 116 550 0
115 -116 550 0
-115 -116 -550 0
117 118 -551 0
-117 118 551 0
117 -118 551 0
-117 -118 -551 0
119 120 -552 0
-119 120 552 0
119 -120 552 0
-119 -120 -552 0
121 122 -553 0
-121 122 553 0
121 -122 553 0
-121 -122 -553 0
123 124 -554 0
-123 124 554 0
123 -124 554 0
-123 -124 -554 0
125 126 -555 0
-125 126 555 0
125 -126 555 0
-125 -126 -555 0
127 128 -556 0
-127 128 556 0
127 -128 556 0
-127 -128 -556 0
129 130 -557 0
-129 130 557 0
129 -130 557 0
-129 -130 -557 0
131 132 -558 0
-131 132 558 0
131 -132 558 0
-131 -132 -558 0
133 134 -559 0
-133 134 559 0
133 -134 559 0
-133 -134 -559 0
135 136 -560 0
-135 136 560 0
135 -136 560 0
-135 -136 -560 0
137 138 -561 0
-137 138 561 0
137 -138 561 0
-137 -138 -561 0
139 140 -562 0
-139 140 562 0
139 -140 562 0
-139 -140 -562 0
141 142 -563 0
-141 142 563 0
141 -142 563 0
-141 -142 -563 0
143 144 -564 0
-143 144 564 0
143 -144 564 0
-143 -144 -564 0
145 146 -565 0
-145 146 565 0
145 -146 565 0
-145 -146 -565 0
147 148 -566 0
-147 148 566 0
147 -148 566 0
-147 -148 -566 0
149 150 -567 0
-149 150 567 0
149 -150 567 0
-149 -150 -567 0
151 152 -568 0
-151 152 568 0
151 -152 568 0
-151 -152 -568 0
153 154 -569 0
-153 154 569 0
153 -154 569 0
-153 -154 -569 0
155 156 -570 0
-155 156 570 0
155 -156 570 0
-155 -156 -570 0
157 158 -571 0
-157 158 571 0
157 -158 571 0
-157 -158 -571 0
159 160 -572 0
-159 160 572 0
159 -160 572 0
-159 -160 -572 0
161 162 -573 0
-161 162 573 0
161 -162 573 0
-161 -162 -573 0
163 164 -574 0
-163 164 574 0
163 -164 574 0
-163 -164 -574 0
165 166 -575 0
-165 166 575 0
165 -166 575 0
-165 -166 -575 0
167 168 -576 0
-167 168 576 0
167 -168 576 0
-167 -168 -576 0
169 170 -577 0
-169 170 577 0
169 -170 577 0
-169 -170 -577 0
171 172 -578 0
-171 172 578 0
171 -172 578 0
-171 -172 -578 0
173 174 -579 0
-173 174 579 0
173 -174 579 0
-173 -174 -579 0
175 176 -580 0
-175 176 580 0
175 -176 580 0
-175 -176 -580 0
177 178 -581 0
-177 178 581 0
177 -178 581 0
-177 -178 -581 0
179 180 -582 0
-179 180 582 0
179 -180 582 0
-179 -180 -582 0
181 182 -583 0
-181 182 583 0
181 -182 583 0
-181 -182 -583 0
183 184 -584 0
-183 184 584 0
183 -184 584 0
-183 -184 -584 0
185 186 -585 0
-185 186 585 0
185 -186 585 0
-185 -186 -585 0
187 188 -586 0
-187 188 586 0
187 -188 586 0
-187 -188 -586 0
189 190 -587 0
-189 190 587 0
189 -190 587 0
-189 -190 -587 0
191 192 -588 0
-191 192 588 0
191 -192 588 0
-191 -192 -588 0
193 194 -589 0
-193 194 589 0
193 -194 589 0
-193 -194 -589 0
195 196 -590 0
-195 196 590 0
195 -196 590 0
-195 -196 -590 0
197 198 -591 0
-197 198 591 0
197 -198 591 0
-197 -198 -591 0
199 200 -592 0
-199 200 592 0
199 -200 592 0
-199 -200 -592 0
201 202 -593 0
-201 202 593 0
201 -202 593 0
-201 -202 -593 0
203 204 -594 0
-203 204 594 0
203 -204 594 0
-203 -204 -594 0
205 206 -595 0
-205 206 595 0
205 -206 595 0
-205 -206 -595 0
207 208 -596 0
-207 208 596 0
207 -208 596 0
-207 -208 -596 0
209 210 -597 0
-209 210 597 0
209 -210 597 0
-209 -210 -597 0
211 212 -598 0
-211 212 598 0
211 -212 598 0
-211 -212 -598 0
213 214 -599 0
-213 214 599 0
213 -214 599 0
-213 -214 -599 0
215 216 -600 0
-215 216 600 0
215 -216 600 0
-215 -216 -600 0
217 218 -601 0
-217 218 601 0
217 -218 601 0
-217 -218 -601 0
219 220 -602 0
-219 220 602 0
219 -220 602 0
-219 -220 -602 0
221 222 -603 0
-221 222 603 0
221 -222 603 0
-221 -222 -603 0
223 224 -604 0
-223 224 604 0
223 -224 604 0
-223 -224 -604 0
225 226 -605 0
-225 226 605 0
225 -226 605 0
-225 -226 -605 0
227 228 -606 0
-227 228 606 0
227 -228 606 0
-227 -228 -606 0
229 230 -607 0
-229 230 607 0
229 -230 607 0
-229 -230 -607 0
231 232 -608 0
-231 232 608 0
231 -232 608 0
-231 -232 -608 0
233 234 -609 0
-233 234 609 0
233 -234 609 0
-233 -234 -609 0
235 236 -610 0
-235 236 610 0
235 -236 610 0
-235 -236 -610 0
237 238 -611 0
-237 238 611 0
237 -238 611 0
-237 -238 -611 0
239 240 -612 0
-239 240 612 0
239 -240 612 0
-239 -240 -612 0
241 242 -613 0
-241 242 613 0
241 -242 613 0
-241 -242 -613 0
243 244 -614 0
-243 244 614 0
243 -244 614 0
-243 -244 -614 0
245 246 -615 0
-245 246 615 0
245 -246 615 0
-245 -246 -615 0
247 248 -616 0
-247 248 616 0
247 -248 616 0
-247 -248 -616 0
249 250 -617 0
-249 250 617 0
249 -250 617 0
-249 -250 -617 0
251 252 -618 0
-251 252 618 0
251 -252 618 0
-251 -252 -618 0
253 254 -619 0
-253 254 619 0
253 -254 619 0
-253 -254 -619 0
255 256 -620 0
-255 256 620 0
255 -256 620 0
-255 -256 -620 0
257 258 -621 0
-257 258 621 0
257 -258 621 0
-257 -258 -621 0
259 260 -622 0
-259 260 622 0
259 -260 622 0
-259 -260 -622 0
261 262 -623 0
-261 262 623 0
261 -262 623 0
-261 -262 -623 0
263 264 -624 0
-263 264 624 0
263 -264 624 0
-263 -264 -624 0
265 266 -625 0
-265 266 625 0
265 -266 625 0
-265 -266 -625 0
267 268 -626 0
-267 268 626 0
267 -268 626 0
-267 -268 -626 0
269 270 -627 0
-269 270 627 0
269 -270 627 0
-269 -270 -627 0
271 272 -628 0
-271 272 628 0
271 -272 628 0
-271 -272 -628 0
273 274 -629 0
-273 274 629 0
273 -274 629 0
-273 -274 -629 0
275 276 -630 0
-275 276 630 0
275 -276 630 0
-275 -276 -630 0
277 278 -631 0
-277 278 631 0
277 -278 631 0
-277 -278 -631 0
279 280 -632 0
-279 280 632 0
279 -280 632 0
-279 -280 -632 0
281 282 -633 0
-281 282 633 0
281 -282 633 0
-281 -282 -633 0
283 284 -634 0
-283 284 634 0
283 -284 634 0
-283 -284 -634 0
285 286 -635 0
-285 286 635 0
285 -286 635 0
-285 -286 -635 0
287 288 -636 0
-287 288 636 0
287 -288 636 0
-287 -288 -636 0
289 290 -637 0
-289 290 637 0
289 -290 637 0
-289 -290 -637 0
291 292 -638 0
-291 292 638 0
291 -292 638 0
-291 -292 -638 0
293 294 -639 0
-293 294 639 0
293 -294 639 0
-293 -294 -639 0
295 296 -640 0
-295 296 640 0
295 -296 640 0
-295 -296 -640 0
297 298 -641 0
-297 298 641 0
297 -298 641 0
-297 -298 -641 0
299 300 -642 0
-299 300 642 0
299 -300 642 0
-299 -300 -642 0
301 302 -643 0
-301 302 643 0
301 -302 643 0
-301 -302 -643 0
303 304 -644 0
-303 304 644 0
303 -304 644 0
-303 -304 -644 0
305 306 -645 0
-305 306 645 0
305 -306 645 0
-305 -306 -645 0
307 308 -646 0
-307 308 646 0
307 -308 646 0
-307 -308 -646 0
309 310 -647 0
-309 310 647 0
309 -310 647 0
-309 -310 -647 0
311 312 -648 0
-311 312 648 0
311 -312 648 0
-311 -312 -648 0
313 314 -649 0
-313 314 649 0
313 -314 649 0
-313 -314 -649 0
315 316 -650 0
-315 316 650 0
315 -316 650 0
-315 -316 -650 0
317 318 -651 0
-317 318 651 0
317 -318 651 0
-317 -318 -651 0
319 320 -652 0
-319 320 652 0
319 -320 652 0
-319 -320 -652 0
321 322 -653 0
-321 322 653 0
321 -322 653 0
-321 -322 -653 0
323 324 -654 0
-323 324 654 0
323 -324 654 0
-323 -324 -654 0
325 326 -655 0
-325 326 655 0
325 -326 655 0
-325 -326 -655 0
327 328 -656 0
-327 328 656 0
327 -328 656 0
-327 -328 -656 0
329 330 -657 0
-329 330 657 0
329 -330 657 0
-329 -330 -657 0
331 332 -658 0
-331 332 658 0
331 -332 658 0
-331 -332 -658 0
333 334 -659 0
-333 334 659 0
333 -334 659 0
-333 -334 -659 0
335 336 -660 0
-335 336 660 0
335 -336 660 0
-335 -336 -660 0
337 338 -661 0
-337 338 661 0
337 -338 661 0
-337 -338 -661 0
339 340 -662 0
-339 340 662 0
339 -340 662 0
-339 -340 -662 0
341 342 -663 0
-341 342 663 0
341 -342 663 0
-341 -342 -663 0
343 344 -664 0
-343 344 664 0
343 -344 664 0
-343 -344 -664 0
345 346 -665 0
-345 346 665 0
345 -346 665 0
-345 -346 -665 0
347 348 -666 0
-347 348 666 0
347 -348 666 0
-347 -348 -666 0
349 350 -667 0
-349 350 667 0
349 -350 667 0
-349 -350 -667 0
351 352 -668 0
-351 352 668 0
351 -352 668 0
-351 -352 -668 0
353 354 -669 0
-353 354 669 0
353 -354 669 0
-353 -354 -669 0
355 356 -670 0
-355 356 670 0
355 -356 670 0
-355 -356 -670 0
357 358 -671 0
-357 358 671 0
357 -358 671 0
-357 -358 -671 0
359 360 -672 0
-359 360 672 0
359 -360 672 0
-359 -360 -672 0
361 362 -673 0
-361 362 673 0
361 -362 673 0
-361 -362 -673 0
363 364 -674 0
-363 364 674 0
363 -364 674 0
-363 -364 -674 0
365 366 -675 0
-365 366 675 0
365 -366 675 0
-365 -366 -675 0
367 368 -676 0
-367 368 676 0
367 -368 676 0
-367 -368 -676 0
369 370 -677 0
-369 370 677 0
369 -370 677 0
-369 -370 -677 0
371 372 -678 0
-371 372 678 0
371 -372 678 0
-371 -372 -678 0
373 374 -679 0
-373 374 679 0
373 -374 679 0
-373 -374 -679 0
375 376 -680 0
-375 376 680 0
375 -376 680 0
-375 -376 -680 0
377 378 -681 0
-377 378 681 0
377 -378 681 0
-377 -378 -681 0
379 380 -682 0
-379 380 682 0
379 -380 682 0
-379 -380 -682 0
381 382 -683 0
-381 382 683 0
381 -382 683 0
-381 -382 -683 0
383 384 -684 0
-383 384 684 0
383 -384 684 0
-383 -384 -684 0
385 386 -685 0
-385 386 685 0
385 -386 685 0
-385 -386 -685 0
387 388 -686 0
-387 388 686 0
387 -388 686 0
-387 -388 -686 0
389 390 -687 0
-389 390 687 0
389 -390 687 0
-389 -390 -687 0
391 392 -688 0
-391 392 688 0
391 -392 688 0
-391 -392 -688 0
393 394 -689 0
-393 394 689 0
393 -394 689 0
-393 -394 -689 0
395 396 -690 0
-395 396 690 0
395 -396 690 0
-395 -396 -690 0
397 398 -691 0
-397 398 691 0
397 -398 691 0
-397 -398 -691 0
399 400 -692 0
-399 400 692 0
399 -400 692 0
-399 -400 -692 0
401 402 -693 0
-401 402 693 0
401 -402 693 0
-401 -402 -693 0
403 404 -694 0
-403 404 694 0
403 -404 694 0
-403 -404 -694 0
405 406 -695 0
-405 406 695 0
405 -406 695 0
-405 -406 -695 0
407 408 -696 0
-407 408 696 0
407 -408 696 0
-407 -408 -696 0
409 410 -697 0
-409 410 697 0
409 -410 697 0
-409 -410 -697 0
411 412 -698 0
-411 412 698 0
411 -412 698 0
-411 -412 -698 0
413 414 -699 0
-413 414 699 0
413 -414 699 0
-413 -414 -699 0
415 416 -700 0
-415 416 700 0
415 -416 700 0
-415 -416 -700 0
417 418 -701 0
-417 418 701 0
417 -418 701 0
-417 -418 -701 0
419 420 -702 0
-419 420 702 0
419 -420 702 0
-419 -420 -702 0
421 422 -703 0
-421 422 703 0
421 -422 703 0
-421 -422 -703 0
423 424 -704 0
-423 424 704 0
423 -424 704 0
-423 -424 -704 0
425 426 -705 0
-425 426 705 0
425 -426 705 0
-425 -426 -705 0
427 428 -706 0
-427 428 706 0
427 -428 706 0
-427 -428 -706 0
429 430 -707 0
-429 430 707 0
429 -430 707 0
-429 -430 -707 0
431 432 -708 0
-431 432 708 0
431 -432 708 0
-431 -432 -708 0
433 434 -709 0
-433 434 709 0
433 -434 709 0
-433 -434 -709 0
435 436 -710 0
-435 436 710 0
435 -436 710 0
-435 -436 -710 0
437 438 -711 0
-437 438 711 0
437 -438 711 0
-437 -438 -711 0
439 440 -712 0
-439 440 712 0
439 -440 712 0
-439 -440 -712 0
441 442 -713 0
-441 442 713 0
441 -442 713 0
-441 -442 -713 0
443 444 -714 0
-443 444 714 0
443 -444 714 0
-443 -444 -714 0
445 446 -715 0
-445 446 715 0
445 -446 715 0
-445 -446 -715 0
447 448 -716 0
-447 448 716 0
447 -448 716 0
-447 -448 -716 0
449 450 -717 0
-449 450 717 0
449 -450 717 0
-449 -450 -717 0
451 452 -718 0
-451 452 718 0
451 -452 718 0
-451 -452 -718 0
453 454 -719 0
-453 454 719 0
453 -454 719 0
-453 -454 -719 0
455 456 -720 0
-455 456 720 0
455 -456 720 0
-455 -456 -720 0
457 458 -721 0
-457 458 721 0
457 -458 721 0
-457 -458 -721 0
459 460 -722 0
-459 460 722 0
459 -460 722 0
-459 -460 -722 0
461 462 -723 0
-461 462 723 0
461 -462 723 0
-461 -462 -723 0
463 464 -724 0
-463 464 724 0
463 -464 724 0
-463 -464 -724 0
465 466 -725 0
-465 466 725 0
465 -466 725 0
-465 -466 -725 0
467 468 -726 0
-467 468 726 0
467 -468 726 0
-467 -468 -726 0
469 470 -727 0
-469 470 727 0
469 -470 727 0
-469 -470 -727 0
471 472 -728 0
-471 472 728 0
471 -472 728 0
-471 -472 -728 0
473 474 -729 0
-473 474 729 0
473 -474 729 0
-473 -474 -729 0
475 476 -730 0
-475 476 730 0
475 -476 730 0
-475 -476 -730 0
477 478 -731 0
-477 478 731 0
477 -478 731 0
-477 -478 -731 0
479 480 -732 0
-479 480 732 0
479 -480 732 0
-479 -480 -732 0
481 482 -733 0
-481 482 733 0
481 -482 733 0
-481 -482 -733 0
483 484 -734 0
-483 484 734 0
483 -484 734 0
-483 -484 -734 0
485 486 -735 0
-485 486 735 0
485 -486 735 0
-485 -486 -735 0
487 488 -736 0
-487 488 736 0
487 -488 736 0
-487 -488 -736 0
493 494 -737 0
-493 494 737 0
493 -494 737 0
-493 -494 -737 0
495 496 -738 0
-495 496 738 0
495 -496 738 0
-495 -496 -738 0
497 498 -739 0
-497 498 739 0
497 -498 739 0
-497 -498 -739 0
499 500 -740 0
-499 500 740 0
499 -500 740 0
-499 -500 -740 0
501 502 -741 0
-501 502 741 0
501 -502 741 0
-501 -502 -741 0
503 504 -742 0
-503 504 742 0
503 -504 742 0
-503 -504 -742 0
505 506 -743 0
-505 506 743 0
505 -506 743 0
-505 -506 -743 0
507 508 -744 0
-507 508 744 0
507 -508 744 0
-507 -508 -744 0
509 510 -745 0
-509 510 745 0
509 -510 745 0
-509 -510 -745 0
511 512 -746 0
-511 512 746 0
511 -512 746 0
-511 -512 -746 0
513 514 -747 0
-513 514 747 0
513 -514 747 0
-513 -514 -747 0
515 516 -748 0
-515 516 748 0
515 -516 748 0
-515 -516 -748 0
517 518 -749 0
-517 518 749 0
517 -518 749 0
-517 -518 -749 0
519 520 -750 0
-519 520 750 0
519 -520 750 0
-519 -520 -750 0
521 522 -751 0
-521 522 751 0
521 -522 751 0
-521 -522 -751 0
523 524 -752 0
-523 524 752 0
523 -524 752 0
-523 -524 -752 0
525 526 -753 0
-525 526 753 0
525 -526 753 0
-525 -526 -753 0
527 528 -754 0
-527 528 754 0
527 -528 754 0
-527 -528 -754 0
529 530 -755 0
-529 530 755 0
529 -530 755 0
-529 -530 -755 0
531 532 -756 0
-531 532 756 0
531 -532 756 0
-531 -532 -756 0
533 534 -757 0
-533 534 757 0
533 -534 757 0
-533 -534 -757 0
535 536 -758 0
-535 536 758 0
535 -536 758 0
-535 -536 -758 0
537 538 -759 0
-537 538 759 0
537 -538 759 0
-537 -538 -759 0
539 540 -760 0
-539 540 760 0
539 -540 760 0
-539 -540 -760 0
541 542 -761 0
-541 542 761 0
541 -542 761 0
-541 -542 -761 0
543 544 -762 0
-543 544 762 0
543 -544 762 0
-543 -544 -762 0
545 546 -763 0
-545 546 763 0
545 -546 763 0
-545 -546 -763 0
547 548 -764 0
-547 548 764 0
547 -548 764 0
-547 -548 -764 0
549 550 -765 0
-549 550 765 0
549 -550 765 0
-549 -550 -765 0
551 552 -766 0
-551 552 766 0
551 -552 766 0
-551 -552 -766 0
553 554 -767 0
-553 554 767 0
553 -554 767 0
-553 -554 -767 0
555 556 -768 0
-555 556 768 0
555 -556 768 0
-555 -556 -768 0
557 558 -769 0
-557 558 769 0
557 -558 769 0
-557 -558 -769 0
559 560 -770 0
-559 560 770 0
559 -560 770 0
-559 -560 -770 0
561 562 -771 0
-561 562 771 0
561 -562 771 0
-561 -562 -771 0
563 564 -772 0
-563 564 772 0
563 -564 772 0
-563 -564 -772 0
565 566 -773 0
-565 566 773 0
565 -566 773 0
-565 -566 -773 0
567 568 -774 0
-567 568 774 0
567 -568 774 0
-567 -568 -774 0
569 570 -775 0
-569 570 775 0
569 -570 775 0
-569 -570 -775 0
571 572 -776 0
-571 572 776 0
571 -572 776 0
-571 -572 -776 0
573 574 -777 0
-573 574 777 0
573 -574 777 0
-573 -574 -777 0
575 576 -778 0
-575 576 778 0
575 -576 778 0
-575 -576 -778 0
577 578 -779 0
-577 578 779 0
577 -578 779 0
-577 -578 -779 0
579 580 -780 0
-579 580 780 0
579 -580 780 0
-579 -580 -780 0
581 582 -781 0
-581 582 781 0
581 -582 781 0
-581 -582 -781 0
583 584 -782 0
-583 584 782 0
583 -584 782 0
-583 -584 -782 0
585 586 -783 0
-585 586 783 0
585 -586 783 0
-585 -586 -783 0
587 588 -784 0
-587 588 784 0
587 -588 784 0
-587 -588 -784 0
589 590 -785 0
-589 590 785 0
589 -590 785 0
-589 -590 -785 0
591 592 -786 0
-591 592 786 0
591 -592 786 0
-591 -592 -786 0
593 594 -787 0
-593 594 787 0
593 -594 787 0
-593 -594 -787 0
595 596 -788 0
-595 596 788 0
595 -596 788 0
-595 -596 -788 0
597 598 -789 0
-597 598 789 0
597 -598 789 0
-597 -598 -789 0
599 600 -790 0
-599 600 790 0
599 -600 790 0
-599 -600 -790 0
601 602 -791 0
-601 602 791 0
601 -602 791 0
-601 -602 -791 0
603 604 -792 0
-603 604 792 0
603 -604 792 0
-603 -604 -792 0
605 606 -793 0
-605 606 793 0
605 -606 793 0
-605 -606 -793 0
607 608 -794 0
-607 608 794 0
607 -608 794 0
-607 -608 -794 0
609 610 -795 0
-609 610 795 0
609 -610 795 0
-609 -610 -795 0
611 612 -796 0
-611 612 796 0
611 -612 796 0
-611 -612 -796 0
613 614 -797 0
-613 614 797 0
613 -614 797 0
-613 -614 -797 0
615 616 -798 0
-615 616 798 0
615 -616 798 0
-615 -616 -798 0
617 618 -799 0
-617 618 799 0
617 -618 799 0
-617 -618 -799 0
619 620 -800 0
-619 620 800 0
619 -620 800 0
-619 -620 -800 0
621 622 -801 0
-621 622 801 0
621 -622 801 0
-621 -622 -801 0
623 624 -802 0
-623 624 802 0
623 -624 802 0
-623 -624 -802 0
625 626 -803 0
-625 626 803 0
625 -626 803 0
-625 -626 -803 0
627 628 -804 0
-627 628 804 0
627 -628 804 0
-627 -628 -804 0
629 630 -805 0
-629 630 805 0
629 -630 805 0
-629 -630 -805 0
631 632 -806 0
-631 632 806 0
631 -632 806 0
-631 -632 -806 0
633 634 -807 0
-633 634 807 0
633 -634 807 0
-633 -634 -807 0
635 636 -808 0
-635 636 808 0
635 -636 808 0
-635 -636 -808 0
637 638 -809 0
-637 638 809 0
637 -638 809 0
-637 -638 -809 0
639 640 -810 0
-639 640 810 0
639 -640 810 0
-639 -640 -810 0
641 642 -811 0
-641 642 811 0
641 -642 811 0
-641 -642 -811 0
643 644 -812 0
-643 644 812 0
643 -644 812 0
-643 -644 -812 0
645 646 -813 0
-645 646 813 0
645 -646 813 0
-645 -646 -813 0
647 648 -814 0
-647 648 814 0
647 -648 814 0
-647 -648 -814 0
649 650 -815 0
-649 650 815 0
649 -650 815 0
-649 -650 -815 0
651 652 -816 0
-651 652 816 0
651 -652 816 0
-651 -652 -816 0
653 654 -817 0
-653 654 817 0
653 -654 817 0
-653 -654 -817 0
655 656 -818 0
-655 656 818 0
655 -656 818 0
-655 -656 -818 0
657 658 -819 0
-657 658 819 0
657 -658 819 0
-657 -658 -819 0
659 660 -820 0
-659 660 820 0
659 -660 820 0
-659 -660 -820 0
661 662 -821 0
-661 662 821 0
661 -662 821 0
-661 -662 -821 0
663 664 -822 0
-663 664 822 0
663 -664 822 0
-663 -664 -822 0
665 666 -823 0
-665 666 823 0
665 -666 823 0
-665 -666 -823 0
667 668 -824 0
-667 668 824 0
667 -668 824 0
-667 -668 -824 0
669 670 -825 0
-669 670 825 0
669 -670 825 0
-669 -670 -825 0
671 672 -826 0
-671 672 826 0
671 -672 826 0
-671 -672 -826 0
673 674 -827 0
-673 674 827 0
673 -674 827 0
-673 -674 -827 0
675 676 -828 0
-675 676 828 0
675 -676 828 0
-675 -676 -828 0
677 678 -829 0
-677 678 829 0
677 -678 829 0
-677 -678 -829 0
679 680 -830 0
-679 680 830 0
679 -680 830 0
-679 -680 -830 0
681 682 -831 0
-681 682 831 0
681 -682 831 0
-681 -682 -831 0
683 684 -832 0
-683 684 832 0
683 -684 832 0
-683 -684 -832 0
685 686 -833 0
-685 686 833 0
685 -686 833 0
-685 -686 -833 0
687 688 -834 0
-687 688 834 0
687 -688 834 0
-687 -688 -834 0
689 690 -835 0
-689 690 835 0
689 -690 835 0
-689 -690 -835 0
691 692 -836 0
-691 692 836 0
691 -692 836 0
-691 -692 -836 0
693 694 -837 0
-693 694 837 0
693 -694 837 0
-693 -694 -837 0
695 696 -838 0
-695 696 838 0
695 -696 838 0
-695 -696 -838 0
697 698 -839 0
-697 698 839 0
697 -698 839 0
-697 -698 -839 0
699 700 -840 0
-699 700 840 0
699 -700 840 0
-699 -700 -840 0
701 702 -841 0
-701 702 841 0
701 -702 841 0
-701 -702 -841 0
703 704 -842 0
-703 704 842 0
703 -704 842 0
-703 -704 -842 0
705 706 -843 0
-705 706 843 0
705 -706 843 0
-705 -706 -843 0
707 708 -844 0
-707 708 844 0
707 -708 844 0
-707 -708 -844 0
709 710 -845 0
-709 710 845 0
709 -710 845 0
-709 -710 -845 0
711 712 -846 0
-711 712 846 0
711 -712 846 0
-711 -712 -846 0
713 714 -847 0
-713 714 847 0
713 -714 847 0
-713 -714 -847 0
715 716 -848 0
-715 716 848 0
715 -716 848 0
-715 -716 -848 0
717 718 -849 0
-717 718 849 0
717 -718 849 0
-717 -718 -849 0
719 720 -850 0
-719 720 850 0
719 -720 850 0
-719 -720 -850 0
721 722 -851 0
-721 722 851 0
721 -722 851 0
-721 -722 -851 0
723 724 -852 0
-723 724 852 0
723 -724 852 0
-723 -724 -852 0
725 726 -853 0
-725 726 853 0
725 -726 853 0
-725 -726 -853 0
727 728 -854 0
-727 728 854 0
727 -728 854 0
-727 -728 -854 0
729 730 -855 0
-729 730 855 0
729 -730 855 0
-729 -730 -855 0
731 732 -856 0
-731 732 856 0
731 -732 856 0
-731 -732 -856 0
733 734 -857 0
-733 734 857 0
733 -734 857 0
-733 -734 -857 0
735 736 -858 0
-735 736 858 0
735 -736 858 0
-735 -736 -858 0
737 738 -859 0
-737 738 859 0
737 -738 859 0
-737 -738 -859 0
739 740 -860 0
-739 740 860 0
739 -740 860 0
-739 -740 -860 0
741 742 -861 0
-741 742 861 0
741 -742 861 0
-741 -742 -861 0
743 744 -862 0
-743 744 862 0
743 -744 862 0
-743 -744 -862 0
745 746 -863 0
-745 746 863 0
745 -746 863 0
-745 -746 -863 0
747 748 -864 0
-747 748 864 0
747 -748 864 0
-747 -748 -864 0
749 750 -865 0
-749 750 865 0
749 -750 865 0
-749 -750 -865 0
751 752 -866 0
-751 752 866 0
751 -752 866 0
-751 -752 -866 0
753 754 -867 0
-753 754 867 0
753 -754 867 0
-753 -754 -867 0
755 756 -868 0
-755 756 868 0
755 -756 868 0
-755 -756 -868 0
757 758 -869 0
-757 758 869 0
757 -758 869 0
-757 -758 -869 0
759 760 -870 0
-759 760 870 0
759 -760 870 0
-759 -760 -870 0
761 762 -871 0
-761 762 871 0
761 -762 871 0
-761 -762 -871 0
763 764 -872 0
-763 764 872 0
763 -764 872 0
-763 -764 -872 0
765 766 -873 0
-765 766 873 0
765 -766 873 0
-765 -766 -873 0
767 768 -874 0
-767 768 874 0
767 -768 874 0
-767 -768 -874 0
769 770 -875 0
-769 770 875 0
769 -770 875 0
-769 -770 -875 0
771 772 -876 0
-771 772 876 0
771 -772 876 0
-771 -772 -876 0
773 774 -877 0
-773 774 877 0
773 -774 877 0
-773 -774 -877 0
775 776 -878 0
-775 776 878 0
775 -776 878 0
-775 -776 -878 0
777 778 -879 0
-777 778 879 0
777 -778 879 0
-777 -778 -879 0
779 780 -880 0
-779 780 880 0
779 -780 880 0
-779 -780 -880 0
781 782 -881 0
-781 782 881 0
781 -782 881 0
-781 -782 -881 0
783 784 -882 0
-783 784 882 0
783 -784 882 0
-783 -784 -882 0
785 786 -883 0
-785 786 883 0
785 -786 883 0
-785 -786 -883 0
787 788 -884 0
-787 788 884 0
787 -788 884 0
-787 -788 -884 0
789 790 -885 0
-789 790 885 0
789 -790 885 0
-789 -790 -885 0
791 792 -886 0
-791 792 886 0
791 -792 886 0
-791 -792 -886 0
793 794 -887 0
-793 794 887 0
793 -794 887 0
-793 -794 -887 0
795 796 -888 0
-795 796 888 0
795 -796 888 0
-795 -796 -888 0
797 798 -889 0
-797 798 889 0
797 -798 889 0
-797 -798 -889 0
799 800 -890 0
-799 800 890 0
799 -800 890 0
-799 -800 -890 0
801 802 -891 0
-801 802 891 0
801 -802 891 0
-801 -802 -891 0
803 804 -892 0
-803 804 892 0
803 -804 892 0
-803 -804 -892 0
805 806 -893 0
-805 806 893 0
805 -806 893 0
-805 -806 -893 0
807 808 -894 0
-807 808 894 0
807 -808 894 0
-807 -808 -894 0
809 810 -895 0
-809 810 895 0
809 -810 895 0
-809 -810 -895 0
811 812 -896 0
-811 812 896 0
811 -812 896 0
-811 -812 -896 0
813 814 -897 0
-813 814 897 0
813 -814 897 0
-813 -814 -897 0
815 816 -898 0
-815 816 898 0
815 -816 898 0
-815 -816 -898 0
817 818 -899 0
-817 818 899 0
817 -818 899 0
-817 -818 -899 0
819 820 -900 0
-819 820 900 0
819 -820 900 0
-819 -820 -900 0
821 822 -901 0
-821 822 901 0
821 -822 901 0
-821 -822 -901 0
823 824 -902 0
-823 824 902 0
823 -824 902 0
-823 -824 -902 0
825 826 -903 0
-825 826 903 0
825 -826 903 0
-825 -826 -903 0
827 828 -904 0
-827 828 904 0
827 -828 904 0
-827 -828 -904 0
829 830 -905 0
-829 830 905 0
829 -830 905 0
-829 -830 -905 0
831 832 -906 0
-831 832 906 0
831 -832 906 0
-831 -832 -906 0
833 834 -907 0
-833 834 907 0
833 -834 907 0
-833 -834 -907 0
835 836 -908 0
-835 836 908 0
835 -836 908 0
-835 -836 -908 0
837 838 -909 0
-837 838 909 0
837 -838 909 0
-837 -838 -909 0
839 840 -910 0
-839 840 910 0
839 -840 910 0
-839 -840 -910 0
841 842 -911 0
-841 842 911 0
841 -842 911 0
-841 -842 -911 0
843 844 -912 0
-843 844 912 0
843 -844 912 0
-843 -844 -912 0
845 846 -913 0
-845 846 913 0
845 -846 913 0
-845 -846 -913 0
847 848 -914 0
-847 848 914 0
847 -848 914 0
-847 -848 -914 0
849 850 -915 0
-849 850 915 0
849 -850 915 0
-849 -850 -915 0
851 852 -916 0
-851 852 916 0
851 -852 916 0
-851 -852 -916 0
853 854 -917 0
-853 854 917 0
853 -854 917 0
-853 -854 -917 0
855 856 -918 0
-855 856 918 0
855 -856 918 0
-855 -856 -918 0
857 858 -919 0
-857 858 919 0
857 -858 919 0
-857 -858 -919 0
859 860 -920 0
-859 860 920 0
859 -860 920 0
-859 -860 -920 0
861 862 -921 0
-861 862 921 0
861 -862 921 0
-861 -862 -921 0
863 864 -922 0
-863 864 922 0
863 -864 922 0
-863 -864 -922 0
865 866 -923 0
-865 866 923 0
865 -866 923 0
-865 -866 -923 0
867 868 -924 0
-867 868 924 0
867 -868 924 0
-867 -868 -924 0
869 870 -925 0
-869 870 925 0
869 -870 925 0
-869 -870 -925 0
871 872 -926 0
-871 872 926 0
871 -872 926 0
-871 -872 -926 0
873 874 -927 0
-873 874 927 0
873 -874 927 0
-873 -874 -927 0
875 876 -928 0
-875 876 928 0
875 -876 928 0
-875 -876 -928 0
877 878 -929 0
-877 878 929 0
877 -878 929 0
-877 -878 -929 0
879 880 -930 0
-879 880 930 0
879 -880 930 0
-879 -880 -930 0
881 882 -931 0
-881 882 931 0
881 -882 931 0
-881 -882 -931 0
883 884 -932 0
-883 884 932 0
883 -884 932 0
-883 -884 -932 0
885 886 -933 0
-885 886 933 0
885 -886 933 0
-885 -886 -933 0
887 888 -934 0
-887 888 934 0
887 -888 934 0
-887 -888 -934 0
889 890 -935 0
-889 890 935 0
889 -890 935 0
-889 -890 -935 0
891 892 -936 0
-891 892 936 0
891 -892 936 0
-891 -892 -936 0
893 894 -937 0
-893 894 937 0
893 -894 937 0
-893 -894 -937 0
895 896 -938 0
-895 896 938 0
895 -896 938 0
-895 -896 -938 0
897 898 -939 0
-897 898 939 0
897 -898 939 0
-897 -898 -939 0
899 900 -940 0
-899 900 940 0
899 -900 940 0
-899 -900 -940 0
901 902 -941 0
-901 902 941 0
901 -902 941 0
-901 -902 -941 0
903 904 -942 0
-903 904 942 0
903 -904 942 0
-903 -904 -942 0
905 906 -943 0
-905 906 943 0
905 -906 943 0
-905 -906 -943 0
907 908 -944 0
-907 908 944 0
907 -908 944 0
-907 -908 -944 0
909 910 -945 0
-909 910 945 0
909 -910 945 0
-909 -910 -945 0
911 912 -946 0
-911 912 946 0
911 -912 946 0
-911 -912 -946 0
913 914 -947 0
-913 914 947 0
913 -914 947 0
-913 -914 -947 0
915 916 -948 0
-915 916 948 0
915 -916 948 0
-915 -916 -948 0
917 918 -949 0
-917 918 949 0
917 -918 949 0
-917 -918 -949 0
919 489 -950 0
-919 489 950 0
919 -489 950 0
-919 -489 -950 0
920 921 -951 0
-920 921 951 0
920 -921 951 0
-920 -921 -951 0
922 923 -952 0
-922 923 952 0
922 -923 952 0
-922 -923 -952 0
924 925 -953 0
-924 925 953 0
924 -925 953 0
-924 -925 -953 0
926 927 -954 0
-926 927 954 0
926 -927 954 0
-926 -927 -954 0
928 929 -955 0
-928 929 955 0
928 -929 955 0
-928 -929 -955 0
930 931 -956 0
-930 931 956 0
930 -931 956 0
-930 -931 -956 0
932 933 -957 0
-932 933 957 0
932 -933 957 0
-932 -933 -957 0
934 935 -958 0
-934 935 958 0
934 -935 958 0
-934 -935 -958 0
936 937 -959 0
-936 937 959 0
936 -937 959 0
-936 -937 -959 0
938 939 -960 0
-938 939 960 0
938 -939 960 0
-938 -939 -960 0
940 941 -961 0
-940 941 961 0
940 -941 961 0
-940 -941 -961 0
942 943 -962 0
-942 943 962 0
942 -943 962 0
-942 -943 -962 0
944 945 -963 0
-944 945 963 0
944 -945 963 0
-944 -945 -963 0
946 947 -964 0
-946 947 964 0
946 -947 964 0
-946 -947 -964 0
948 949 -965 0
-948 949 965 0
948 -949 965 0
-948 -949 -965 0
951 952 -966 0
-951 952 966 0
951 -952 966 0
-951 -952 -966 0
953 954 -967 0
-953 954 967 0
953 -954 967 0
-953 -954 -967 0
955 956 -968 0
-955 956 968 0
955 -956 968 0
-955 -956 -968 0
957 958 -969 0
-957 958 969 0
957 -958 969 0
-957 -958 -969 0
959 960 -970 0
-959 960 970 0
959 -960 970 0
-959 -960 -970 0
961 962 -971 0
-961 962 971 0
961 -962 971 0
-961 -962 -971 0
963 964 -972 0
-963 964 972 0
963 -964 972 0
-963 -964 -972 0
965 950 -973 0
-965 950 973 0
965 -950 973 0
-965 -950 -973 0
966 967 -974 0
-966 967 974 0
966 -967 974 0
-966 -967 -974 0
968 969 -975 0
-968 969 975 0
968 -969 975 0
-968 -969 -975 0
970 971 -976 0
-970 971 976 0
970 -971 976 0
-970 -971 -976 0
972 973 -977 0
-972 973 977 0
972 -973 977 0
-972 -973 -977 0
974 975 -978 0
-974 975 978 0
974 -975 978 0
-974 -975 -978 0
976 977 -979 0
-976 977 979 0
976 -977 979 0
-976 -977 -979 0
978 979 -490 0
-978 979 490 0
978 -979 490 0
-978 -979 -490 0
